This is Ipopt version 3.12.3, running with linear solver mumps.
NOTE: Other linear solvers might be more efficient (see Ipopt documentation).

Number of nonzeros in equality constraint Jacobian...:        0
Number of nonzeros in inequality constraint Jacobian.:        2
Number of nonzeros in Lagrangian Hessian.............:        3

Total number of variables............................:        2
                     variables with only lower bounds:        2
                variables with lower and upper bounds:        0
                     variables with only upper bounds:        0
Total number of equality constraints.................:        0
Total number of inequality constraints...............:        1
        inequality constraints with only lower bounds:        0
   inequality constraints with lower and upper bounds:        1
        inequality constraints with only upper bounds:        0

iter    objective    inf_pr   inf_du lg(mu)  ||d||  lg(rg) alpha_du alpha_pr  ls
   0 -1.7589983e-01 8.50e-01 3.77e+00   0.0 0.00e+00    -  0.00e+00 0.00e+00   0
   1 -1.9721861e+00 0.00e+00 2.63e-01  -0.7 2.15e-01    -  1.00e+00 9.29e-01f  1
   2 -1.9867761e+00 0.00e+00 1.31e-03  -2.0 2.95e-02    -  9.97e-01 1.00e+00h  1
   3 -1.9902767e+00 0.00e+00 9.43e-09  -3.0 4.22e-02    -  1.00e+00 1.00e+00f  1
   4 -1.9904743e+00 0.00e+00 5.63e-06  -4.2 1.16e-02    -  1.00e+00 1.00e+00f  1
   5 -1.9904762e+00 0.00e+00 1.14e-11  -5.9 1.24e-03    -  1.00e+00 1.00e+00f  1
   6 -1.9904762e+00 0.00e+00 1.52e-09 -11.0 7.43e-06    -  1.00e+00 1.00e+00f  1

Number of Iterations....: 6

                                   (scaled)                 (unscaled)
Objective...............:  -1.9904761904761905e+00   -1.9904761904761905e+00
Dual infeasibility......:   1.5166466178185650e-09    1.5166466178185650e-09
Constraint violation....:   0.0000000000000000e+00    0.0000000000000000e+00
Complementarity.........:   7.4489051076476818e-10    7.4489051076476818e-10
Overall NLP error.......:   1.5166466178185650e-09    1.5166466178185650e-09


Number of objective function evaluations             = 7
Number of objective gradient evaluations             = 7
Number of equality constraint evaluations            = 0
Number of inequality constraint evaluations          = 7
Number of equality constraint Jacobian evaluations   = 0
Number of inequality constraint Jacobian evaluations = 1
Number of Lagrangian Hessian evaluations             = 1
Total CPU secs in IPOPT (w/o function evaluations)   =      0.014
Total CPU secs in NLP function evaluations           =      0.000

EXIT: Optimal Solution Found.
